<instance format="XCSP3" type="COP">
  <variables>
    <var id="b" note="number of banana cakes"> 0..100 </var>
    <var id="c" note="number of chocolate cakes"> 0..100 </var>
  </variables>
  <constraints>
    <intension> le(add(mul(250,b),mul(200,c)),4000) </intension>
    <intension> le(mul(2,b),6) </intension>
    <intension> le(add(mul(75,b),mul(150,c)),2000) </intension>
    <intension> le(add(mul(100,b),mul(150,c)),500) </intension>
    <intension> le(mul(75,c),500) </intension>
  </constraints>
  <objectives>
    <maximize> add(mul(b,400),mul(c,450)) </maximize>
  </objectives>
</instance>
